25 100
  0     40.0     50.0       0.0     1236.0      0.0       0.0       0.0  
  1     45.0     68.0      885.0     994.0     90.0       8.0      10.0  
  2     45.0     70.0      802.0     893.0     90.0      13.0      30.0  
  3     42.0     66.0      25.0      186.0     90.0       3.0      10.0  
  4     42.0     68.0      699.0     810.0     90.0       9.0      10.0  
  5     42.0     65.0      15.0      120.0     90.0      10.0      10.0  
  6     40.0     69.0      580.0     743.0     90.0       7.0      20.0  
  7     40.0     66.0      142.0     253.0     90.0       2.0      20.0  
  8     38.0     68.0      220.0     359.0     90.0      13.0      20.0  
  9     38.0     70.0      499.0     640.0     90.0       1.0      10.0  
 10     35.0     66.0      331.0     436.0     90.0       6.0      10.0  
 11     35.0     69.0      420.0     533.0     90.0       3.0      10.0  
 12     25.0     85.0      617.0     756.0     90.0      11.0      20.0  
 13     22.0     75.0      30.0      155.0     90.0       0.0      30.0  
 14     22.0     85.0      541.0     646.0     90.0       4.0      10.0  
 15     20.0     80.0      362.0     451.0     90.0      25.0      40.0  
 16     20.0     85.0      448.0     555.0     90.0      38.0      40.0  
 17     18.0     75.0      75.0      172.0     90.0       9.0      20.0  
 18     15.0     75.0      142.0     291.0     90.0      16.0      20.0  
 19     15.0     80.0      244.0     379.0     90.0       3.0      10.0  
 20     30.0     50.0      10.0      137.0     90.0       7.0      10.0  
 21     30.0     52.0      888.0     991.0     90.0       3.0      20.0  
 22     28.0     52.0      776.0     919.0     90.0      10.0      20.0  
 23     28.0     55.0      709.0     800.0     90.0       0.0      10.0  
 24     25.0     50.0      25.0      184.0     90.0       9.0      10.0  
 25     25.0     52.0      142.0     251.0     90.0      17.0      40.0  
 26     25.0     55.0      582.0     741.0     90.0       9.0      10.0  
 27     23.0     52.0      234.0     343.0     90.0       8.0      10.0  
 28     23.0     55.0      523.0     616.0     90.0      13.0      20.0  
 29     20.0     50.0      335.0     428.0     90.0       2.0      10.0  
 30     20.0     55.0      422.0     531.0     90.0       3.0      10.0  
 31     10.0     35.0      181.0     256.0     90.0      12.0      20.0  
 32     10.0     40.0      31.0      170.0     90.0      26.0      30.0  
 33      8.0     40.0      52.0      193.0     90.0      23.0      40.0  
 34      8.0     45.0      719.0     848.0     90.0      14.0      20.0  
 35      5.0     35.0      252.0     375.0     90.0       3.0      10.0  
 36      5.0     45.0      639.0     742.0     90.0       7.0      10.0  
 37      2.0     40.0      357.0     460.0     90.0       8.0      20.0  
 38      0.0     40.0      457.0     544.0     90.0      16.0      30.0  
 39      0.0     45.0      538.0     653.0     90.0       2.0      20.0  
 40     35.0     30.0      236.0     349.0     90.0       3.0      10.0  
 41     35.0     32.0      132.0     269.0     90.0      10.0      10.0  
 42     33.0     32.0      27.0      190.0     90.0       4.0      20.0  
 43     33.0     35.0      16.0      144.0     90.0       0.0      10.0  
 44     32.0     30.0      332.0     439.0     90.0       7.0      10.0  
 45     30.0     30.0      512.0     629.0     90.0       9.0      10.0  
 46     30.0     32.0      417.0     540.0     90.0       3.0      30.0  
 47     30.0     35.0      982.0    1127.0     90.0       6.0      10.0  
 48     28.0     30.0      601.0     724.0     90.0       8.0      10.0  
 49     28.0     35.0      969.0    1098.0     90.0       5.0      10.0  
 50     26.0     32.0      783.0     912.0     90.0       7.0      10.0  
